domains/core_rtl_infrastructure_and_glue/reset_synchronizer/tb/out/formal/reset_synchronizer_formal/model/design_smt2.smt2
; SMT-LIBv2 description generated by Yosys 0.63+188 (git sha1 cede13a74-dirty, x86_64-w64-mingw32-g++ 13.2.1 -O3)
; yosys-smt2-module $paramod$55135e7151185edcc8d80f31efbb9cc8c3ecc2f7/reset_synchronizer
(declare-sort |$paramod$55135e7151185edcc8d80f31efbb9cc8c3ecc2f7/reset_synchronizer_s| 0)
(declare-fun |$paramod$55135e7151185edcc8d80f31efbb9cc8c3ecc2f7/reset_synchronizer_is| (|$paramod$55135e7151185edcc8d80f31efbb9cc8c3ecc2f7/reset_synchronizer_s|) Bool)
; yosys-smt2-witness {"offset": 0, "path": ["$auto$clk2fflogic.cc:75:sample_control$$auto$rtlil.cc:3255:Not$40#sampled$41"], "smtname": 0, "smtoffset": 0, "type": "reg", "width": 1}
(declare-fun |$paramod$55135e7151185edcc8d80f31efbb9cc8c3ecc2f7/reset_synchronizer#0| (|$paramod$55135e7151185edcc8d80f31efbb9cc8c3ecc2f7/reset_synchronizer_s|) (_ BitVec 1)) ; $auto$clk2fflogic.cc:75:sample_control$$auto$rtlil.cc:3255:Not$40#sampled$41
; yosys-smt2-register $auto$clk2fflogic.cc:75:sample_control$$auto$rtlil.cc:3255:Not$40#sampled$41 1
(define-fun |$paramod$55135e7151185edcc8d80f31efbb9cc8c3ecc2f7/reset_synchronizer_n $auto$clk2fflogic.cc:75:sample_control$$auto$rtlil.cc:3255:Not$40#sampled$41| ((state |$paramod$55135e7151185edcc8d80f31efbb9cc8c3ecc2f7/reset_synchronizer_s|)) Bool (= ((_ extract 0 0) (|$paramod$55135e7151185edcc8d80f31efbb9cc8c3ecc2f7/reset_synchronizer#0| state)) #b1))
; yosys-smt2-witness {"offset": 0, "path": ["$auto$clk2fflogic.cc:87:sample_control_edge$\\clk#sampled$33"], "smtname": 1, "smtoffset": 0, "type": "reg", "width": 1}
(declare-fun |$paramod$55135e7151185edcc8d80f31efbb9cc8c3ecc2f7/reset_synchronizer#1| (|$paramod$55135e7151185edcc8d80f31efbb9cc8c3ecc2f7/reset_synchronizer_s|) (_ BitVec 1)) ; $auto$clk2fflogic.cc:87:sample_control_edge$\clk#sampled$33
; yosys-smt2-register $auto$clk2fflogic.cc:87:sample_control_edge$/clk#sampled$33 1
(define-fun |$paramod$55135e7151185edcc8d80f31efbb9cc8c3ecc2f7/reset_synchronizer_n $auto$clk2fflogic.cc:87:sample_control_edge$/clk#sampled$33| ((state |$paramod$55135e7151185edcc8d80f31efbb9cc8c3ecc2f7/reset_synchronizer_s|)) Bool (= ((_ extract 0 0) (|$paramod$55135e7151185edcc8d80f31efbb9cc8c3ecc2f7/reset_synchronizer#1| state)) #b1))
; yosys-smt2-witness {"offset": 1, "path": ["$auto$clk2fflogic.cc:101:sample_data${\\sync_q[0]1'0}#sampled$31"], "smtname": 2, "smtoffset": 0, "type": "reg", "width": 1}
(declare-fun |$paramod$55135e7151185edcc8d80f31efbb9cc8c3ecc2f7/reset_synchronizer#2| (|$paramod$55135e7151185edcc8d80f31efbb9cc8c3ecc2f7/reset_synchronizer_s|) (_ BitVec 1)) ; $auto$clk2fflogic.cc:101:sample_data${\sync_q[0]1'0}#sampled$31 [1]
; yosys-smt2-register $auto$clk2fflogic.cc:101:sample_data${/sync_q[0]1'0}#sampled$31 2
(define-fun |$paramod$55135e7151185edcc8d80f31efbb9cc8c3ecc2f7/reset_synchronizer_n $auto$clk2fflogic.cc:101:sample_data${/sync_q[0]1'0}#sampled$31| ((state |$paramod$55135e7151185edcc8d80f31efbb9cc8c3ecc2f7/reset_synchronizer_s|)) (_ BitVec 2) (concat (|$paramod$55135e7151185edcc8d80f31efbb9cc8c3ecc2f7/reset_synchronizer#2| state) #b0))
; yosys-smt2-anyinit $paramod$55135e7151185edcc8d80f31efbb9cc8c3ecc2f7/reset_synchronizer#3 2 $auto$clk2fflogic.cc:108:sample_data$30
; yosys-smt2-witness {"offset": 0, "path": ["\\sync_q"], "smtname": 3, "smtoffset": 0, "type": "init", "width": 2}
(declare-fun |$paramod$55135e7151185edcc8d80f31efbb9cc8c3ecc2f7/reset_synchronizer#3| (|$paramod$55135e7151185edcc8d80f31efbb9cc8c3ecc2f7/reset_synchronizer_s|) (_ BitVec 2)) ; $auto$clk2fflogic.cc:101:sample_data$\sync_q#sampled$29
; yosys-smt2-register $auto$clk2fflogic.cc:101:sample_data$/sync_q#sampled$29 2
(define-fun |$paramod$55135e7151185edcc8d80f31efbb9cc8c3ecc2f7/reset_synchronizer_n $auto$clk2fflogic.cc:101:sample_data$/sync_q#sampled$29| ((state |$paramod$55135e7151185edcc8d80f31efbb9cc8c3ecc2f7/reset_synchronizer_s|)) (_ BitVec 2) (|$paramod$55135e7151185edcc8d80f31efbb9cc8c3ecc2f7/reset_synchronizer#3| state))
(declare-fun |$paramod$55135e7151185edcc8d80f31efbb9cc8c3ecc2f7/reset_synchronizer#4| (|$paramod$55135e7151185edcc8d80f31efbb9cc8c3ecc2f7/reset_synchronizer_s|) Bool) ; \clk
; yosys-smt2-input clk 1
; yosys-smt2-wire clk 1
; yosys-smt2-witness {"offset": 0, "path": ["\\clk"], "smtname": "clk", "smtoffset": 0, "type": "input", "width": 1}
(define-fun |$paramod$55135e7151185edcc8d80f31efbb9cc8c3ecc2f7/reset_synchronizer_n clk| ((state |$paramod$55135e7151185edcc8d80f31efbb9cc8c3ecc2f7/reset_synchronizer_s|)) Bool (|$paramod$55135e7151185edcc8d80f31efbb9cc8c3ecc2f7/reset_synchronizer#4| state))
(define-fun |$paramod$55135e7151185edcc8d80f31efbb9cc8c3ecc2f7/reset_synchronizer#5| ((state |$paramod$55135e7151185edcc8d80f31efbb9cc8c3ecc2f7/reset_synchronizer_s|)) Bool (= (concat (|$paramod$55135e7151185edcc8d80f31efbb9cc8c3ecc2f7/reset_synchronizer#1| state) (ite (|$paramod$55135e7151185edcc8d80f31efbb9cc8c3ecc2f7/reset_synchronizer#4| state) #b1 #b0)) #b01)) ; $auto$rtlil.cc:3311:Eqx$36
(define-fun |$paramod$55135e7151185edcc8d80f31efbb9cc8c3ecc2f7/reset_synchronizer#6| ((state |$paramod$55135e7151185edcc8d80f31efbb9cc8c3ecc2f7/reset_synchronizer_s|)) (_ BitVec 2) (ite (|$paramod$55135e7151185edcc8d80f31efbb9cc8c3ecc2f7/reset_synchronizer#5| state) (concat (|$paramod$55135e7151185edcc8d80f31efbb9cc8c3ecc2f7/reset_synchronizer#2| state) #b0) (|$paramod$55135e7151185edcc8d80f31efbb9cc8c3ecc2f7/reset_synchronizer#3| state))) ; $auto$rtlil.cc:3390:Mux$38
(define-fun |$paramod$55135e7151185edcc8d80f31efbb9cc8c3ecc2f7/reset_synchronizer#7| ((state |$paramod$55135e7151185edcc8d80f31efbb9cc8c3ecc2f7/reset_synchronizer_s|)) (_ BitVec 2) (ite (= ((_ extract 0 0) (|$paramod$55135e7151185edcc8d80f31efbb9cc8c3ecc2f7/reset_synchronizer#0| state)) #b1) #b11 (|$paramod$55135e7151185edcc8d80f31efbb9cc8c3ecc2f7/reset_synchronizer#6| state))) ; $auto$rtlil.cc:3390:Mux$44
(declare-fun |$paramod$55135e7151185edcc8d80f31efbb9cc8c3ecc2f7/reset_synchronizer#8| (|$paramod$55135e7151185edcc8d80f31efbb9cc8c3ecc2f7/reset_synchronizer_s|) (_ BitVec 1)) ; \rst_in
(define-fun |$paramod$55135e7151185edcc8d80f31efbb9cc8c3ecc2f7/reset_synchronizer#9| ((state |$paramod$55135e7151185edcc8d80f31efbb9cc8c3ecc2f7/reset_synchronizer_s|)) (_ BitVec 2) (ite (= ((_ extract 0 0) (|$paramod$55135e7151185edcc8d80f31efbb9cc8c3ecc2f7/reset_synchronizer#8| state)) #b1) (|$paramod$55135e7151185edcc8d80f31efbb9cc8c3ecc2f7/reset_synchronizer#7| state) #b11)) ; \sync_q
(define-fun |$paramod$55135e7151185edcc8d80f31efbb9cc8c3ecc2f7/reset_synchronizer#10| ((state |$paramod$55135e7151185edcc8d80f31efbb9cc8c3ecc2f7/reset_synchronizer_s|)) (_ BitVec 1) (bvnot ((_ extract 1 1) (|$paramod$55135e7151185edcc8d80f31efbb9cc8c3ecc2f7/reset_synchronizer#9| state)))) ; \release_done
; yosys-smt2-output release_done 1
; yosys-smt2-wire release_done 1
(define-fun |$paramod$55135e7151185edcc8d80f31efbb9cc8c3ecc2f7/reset_synchronizer_n release_done| ((state |$paramod$55135e7151185edcc8d80f31efbb9cc8c3ecc2f7/reset_synchronizer_s|)) Bool (= ((_ extract 0 0) (|$paramod$55135e7151185edcc8d80f31efbb9cc8c3ecc2f7/reset_synchronizer#10| state)) #b1))
; yosys-smt2-input rst_in 1
; yosys-smt2-wire rst_in 1
; yosys-smt2-witness {"offset": 0, "path": ["\\rst_in"], "smtname": "rst_in", "smtoffset": 0, "type": "input", "width": 1}
(define-fun |$paramod$55135e7151185edcc8d80f31efbb9cc8c3ecc2f7/reset_synchronizer_n rst_in| ((state |$paramod$55135e7151185edcc8d80f31efbb9cc8c3ecc2f7/reset_synchronizer_s|)) Bool (= ((_ extract 0 0) (|$paramod$55135e7151185edcc8d80f31efbb9cc8c3ecc2f7/reset_synchronizer#8| state)) #b1))
; yosys-smt2-output rst_out 1
; yosys-smt2-wire rst_out 1
(define-fun |$paramod$55135e7151185edcc8d80f31efbb9cc8c3ecc2f7/reset_synchronizer_n rst_out| ((state |$paramod$55135e7151185edcc8d80f31efbb9cc8c3ecc2f7/reset_synchronizer_s|)) Bool (= ((_ extract 0 0) (|$paramod$55135e7151185edcc8d80f31efbb9cc8c3ecc2f7/reset_synchronizer#10| state)) #b1))
; yosys-smt2-wire sync_q 2
(define-fun |$paramod$55135e7151185edcc8d80f31efbb9cc8c3ecc2f7/reset_synchronizer_n sync_q| ((state |$paramod$55135e7151185edcc8d80f31efbb9cc8c3ecc2f7/reset_synchronizer_s|)) (_ BitVec 2) (|$paramod$55135e7151185edcc8d80f31efbb9cc8c3ecc2f7/reset_synchronizer#9| state))
(define-fun |$paramod$55135e7151185edcc8d80f31efbb9cc8c3ecc2f7/reset_synchronizer#11| ((state |$paramod$55135e7151185edcc8d80f31efbb9cc8c3ecc2f7/reset_synchronizer_s|)) (_ BitVec 1) (bvnot (|$paramod$55135e7151185edcc8d80f31efbb9cc8c3ecc2f7/reset_synchronizer#8| state))) ; $auto$rtlil.cc:3255:Not$40
(define-fun |$paramod$55135e7151185edcc8d80f31efbb9cc8c3ecc2f7/reset_synchronizer_a| ((state |$paramod$55135e7151185edcc8d80f31efbb9cc8c3ecc2f7/reset_synchronizer_s|)) Bool true)
(define-fun |$paramod$55135e7151185edcc8d80f31efbb9cc8c3ecc2f7/reset_synchronizer_u| ((state |$paramod$55135e7151185edcc8d80f31efbb9cc8c3ecc2f7/reset_synchronizer_s|)) Bool true)
(define-fun |$paramod$55135e7151185edcc8d80f31efbb9cc8c3ecc2f7/reset_synchronizer_i| ((state |$paramod$55135e7151185edcc8d80f31efbb9cc8c3ecc2f7/reset_synchronizer_s|)) Bool (and
  (= (= ((_ extract 0 0) (|$paramod$55135e7151185edcc8d80f31efbb9cc8c3ecc2f7/reset_synchronizer#0| state)) #b1) false) ; $auto$clk2fflogic.cc:75:sample_control$$auto$rtlil.cc:3255:Not$40#sampled$41
  (= (= ((_ extract 0 0) (|$paramod$55135e7151185edcc8d80f31efbb9cc8c3ecc2f7/reset_synchronizer#1| state)) #b1) true) ; $auto$clk2fflogic.cc:87:sample_control_edge$/clk#sampled$33
  (= (bvand (concat (|$paramod$55135e7151185edcc8d80f31efbb9cc8c3ecc2f7/reset_synchronizer#2| state) #b0) #b10) #b00) ; $auto$clk2fflogic.cc:101:sample_data${/sync_q[0]1'0}#sampled$31
))
(define-fun |$paramod$55135e7151185edcc8d80f31efbb9cc8c3ecc2f7/reset_synchronizer_h| ((state |$paramod$55135e7151185edcc8d80f31efbb9cc8c3ecc2f7/reset_synchronizer_s|)) Bool true)
(define-fun |$paramod$55135e7151185edcc8d80f31efbb9cc8c3ecc2f7/reset_synchronizer_t| ((state |$paramod$55135e7151185edcc8d80f31efbb9cc8c3ecc2f7/reset_synchronizer_s|) (next_state |$paramod$55135e7151185edcc8d80f31efbb9cc8c3ecc2f7/reset_synchronizer_s|)) Bool (and
  (= (|$paramod$55135e7151185edcc8d80f31efbb9cc8c3ecc2f7/reset_synchronizer#9| state) (|$paramod$55135e7151185edcc8d80f31efbb9cc8c3ecc2f7/reset_synchronizer#3| next_state)) ; $auto$clk2fflogic.cc:108:sample_data$30 $auto$clk2fflogic.cc:101:sample_data$\sync_q#sampled$29
  (= ((_ extract 0 0) (|$paramod$55135e7151185edcc8d80f31efbb9cc8c3ecc2f7/reset_synchronizer#9| state)) (|$paramod$55135e7151185edcc8d80f31efbb9cc8c3ecc2f7/reset_synchronizer#2| next_state)) ; $auto$ff.cc:337:slice$67 $auto$clk2fflogic.cc:101:sample_data${\sync_q[0]1'0}#sampled$31 [1]
  (= (ite (|$paramod$55135e7151185edcc8d80f31efbb9cc8c3ecc2f7/reset_synchronizer#4| state) #b1 #b0) (|$paramod$55135e7151185edcc8d80f31efbb9cc8c3ecc2f7/reset_synchronizer#1| next_state)) ; $auto$clk2fflogic.cc:92:sample_control_edge$34 $auto$clk2fflogic.cc:87:sample_control_edge$\clk#sampled$33
  (= (|$paramod$55135e7151185edcc8d80f31efbb9cc8c3ecc2f7/reset_synchronizer#11| state) (|$paramod$55135e7151185edcc8d80f31efbb9cc8c3ecc2f7/reset_synchronizer#0| next_state)) ; $auto$clk2fflogic.cc:80:sample_control$42 $auto$clk2fflogic.cc:75:sample_control$$auto$rtlil.cc:3255:Not$40#sampled$41
)) ; end of module $paramod$55135e7151185edcc8d80f31efbb9cc8c3ecc2f7/reset_synchronizer
; yosys-smt2-module reset_synchronizer_formal
(declare-sort |reset_synchronizer_formal_s| 0)
(declare-fun |reset_synchronizer_formal_is| (|reset_synchronizer_formal_s|) Bool)
; yosys-smt2-witness {"offset": 0, "path": ["\\formal_ticks"], "smtname": 0, "smtoffset": 0, "type": "reg", "width": 5}
(declare-fun |reset_synchronizer_formal#0| (|reset_synchronizer_formal_s|) (_ BitVec 5)) ; \formal_ticks
; yosys-smt2-wire clk 1
(define-fun |reset_synchronizer_formal_n clk| ((state |reset_synchronizer_formal_s|)) Bool (= ((_ extract 0 0) (|reset_synchronizer_formal#0| state)) #b1))
; yosys-smt2-register formal_ticks 5
; yosys-smt2-wire formal_ticks 5
(define-fun |reset_synchronizer_formal_n formal_ticks| ((state |reset_synchronizer_formal_s|)) (_ BitVec 5) (|reset_synchronizer_formal#0| state))
; yosys-smt2-cell $paramod$55135e7151185edcc8d80f31efbb9cc8c3ecc2f7/reset_synchronizer dut
; yosys-smt2-witness {"path": ["\\dut"], "smtname": "dut", "type": "cell"}
(declare-fun |reset_synchronizer_formal#1| (|reset_synchronizer_formal_s|) Bool) ; \release_done
(declare-fun |reset_synchronizer_formal#2| (|reset_synchronizer_formal_s|) Bool) ; \rst_out
(declare-fun |reset_synchronizer_formal_h dut| (|reset_synchronizer_formal_s|) |$paramod$55135e7151185edcc8d80f31efbb9cc8c3ecc2f7/reset_synchronizer_s|)
; yosys-smt2-wire release_done 1
(define-fun |reset_synchronizer_formal_n release_done| ((state |reset_synchronizer_formal_s|)) Bool (|reset_synchronizer_formal#1| state))
; yosys-smt2-anyseq reset_synchronizer_formal#3 1 reset_synchronizer_formal.sv:3.22-3.30 rst_tail
; yosys-smt2-witness {"offset": 0, "path": ["\\rst_tail"], "smtname": 3, "smtoffset": 0, "type": "seq", "width": 1}
(declare-fun |reset_synchronizer_formal#3| (|reset_synchronizer_formal_s|) (_ BitVec 1)) ; \rst_tail
(define-fun |reset_synchronizer_formal#4| ((state |reset_synchronizer_formal_s|)) Bool (bvult (|reset_synchronizer_formal#0| state) #b00011)) ; $lt$reset_synchronizer_formal.sv:6$2_Y
(define-fun |reset_synchronizer_formal#5| ((state |reset_synchronizer_formal_s|)) (_ BitVec 1) (ite (|reset_synchronizer_formal#4| state) #b0 (|reset_synchronizer_formal#3| state))) ; \rst_in
; yosys-smt2-wire rst_in 1
(define-fun |reset_synchronizer_formal_n rst_in| ((state |reset_synchronizer_formal_s|)) Bool (= ((_ extract 0 0) (|reset_synchronizer_formal#5| state)) #b1))
; yosys-smt2-wire rst_out 1
(define-fun |reset_synchronizer_formal_n rst_out| ((state |reset_synchronizer_formal_s|)) Bool (|reset_synchronizer_formal#2| state))
; yosys-smt2-wire rst_tail 1
(define-fun |reset_synchronizer_formal_n rst_tail| ((state |reset_synchronizer_formal_s|)) Bool (= ((_ extract 0 0) (|reset_synchronizer_formal#3| state)) #b1))
(define-fun |reset_synchronizer_formal#6| ((state |reset_synchronizer_formal_s|)) Bool (not (or  (|reset_synchronizer_formal#2| state) false))) ; $logic_not$reset_synchronizer_formal.sv:29$8_Y
(define-fun |reset_synchronizer_formal#7| ((state |reset_synchronizer_formal_s|)) (_ BitVec 1) (ite (= ((_ extract 0 0) (|reset_synchronizer_formal#5| state)) #b1) #b0 #b1)) ; $assert$reset_synchronizer_formal.sv:29$7_EN
; yosys-smt2-assert 0 _witness_.check_assert_reset_synchronizer_formal_sv_29_7 reset_synchronizer_formal.sv:29.13-29.29
(define-fun |reset_synchronizer_formal_a 0| ((state |reset_synchronizer_formal_s|)) Bool (or (|reset_synchronizer_formal#6| state) (not (= ((_ extract 0 0) (|reset_synchronizer_formal#7| state)) #b1)))) ; _witness_.check_assert_reset_synchronizer_formal_sv_29_7
(define-fun |reset_synchronizer_formal#8| ((state |reset_synchronizer_formal_s|)) Bool (not (or  (|reset_synchronizer_formal#1| state) false))) ; $logic_not$reset_synchronizer_formal.sv:30$10_Y
; yosys-smt2-assert 1 _witness_.check_assert_reset_synchronizer_formal_sv_30_9 reset_synchronizer_formal.sv:30.13-30.34
(define-fun |reset_synchronizer_formal_a 1| ((state |reset_synchronizer_formal_s|)) Bool (or (|reset_synchronizer_formal#8| state) (not (= ((_ extract 0 0) (|reset_synchronizer_formal#7| state)) #b1)))) ; _witness_.check_assert_reset_synchronizer_formal_sv_30_9
(define-fun |reset_synchronizer_formal#9| ((state |reset_synchronizer_formal_s|)) (_ BitVec 1) (ite (|reset_synchronizer_formal#1| state) #b1 #b0)) ; $assert$reset_synchronizer_formal.sv:34$11_EN
; yosys-smt2-assert 2 _witness_.check_assert_reset_synchronizer_formal_sv_34_11 reset_synchronizer_formal.sv:34.13-34.28
(define-fun |reset_synchronizer_formal_a 2| ((state |reset_synchronizer_formal_s|)) Bool (or (|reset_synchronizer_formal#2| state) (not (= ((_ extract 0 0) (|reset_synchronizer_formal#9| state)) #b1)))) ; _witness_.check_assert_reset_synchronizer_formal_sv_34_11
(define-fun |reset_synchronizer_formal#10| ((state |reset_synchronizer_formal_s|)) Bool (= (ite (|reset_synchronizer_formal#1| state) #b1 #b0) (ite (|reset_synchronizer_formal#2| state) #b1 #b0))) ; $eq$reset_synchronizer_formal.sv:37$13_Y
; yosys-smt2-assert 3 _witness_.check_assert_reset_synchronizer_formal_sv_37_12 reset_synchronizer_formal.sv:37.9-37.40
(define-fun |reset_synchronizer_formal_a 3| ((state |reset_synchronizer_formal_s|)) Bool (or (|reset_synchronizer_formal#10| state) (not true))) ; _witness_.check_assert_reset_synchronizer_formal_sv_37_12
(define-fun |reset_synchronizer_formal#11| ((state |reset_synchronizer_formal_s|)) (_ BitVec 5) (bvadd (|reset_synchronizer_formal#0| state) #b00001)) ; $0\formal_ticks[4:0]
(define-fun |reset_synchronizer_formal_a| ((state |reset_synchronizer_formal_s|)) Bool (and
  (|reset_synchronizer_formal_a 0| state)
  (|reset_synchronizer_formal_a 1| state)
  (|reset_synchronizer_formal_a 2| state)
  (|reset_synchronizer_formal_a 3| state)
  (|$paramod$55135e7151185edcc8d80f31efbb9cc8c3ecc2f7/reset_synchronizer_a| (|reset_synchronizer_formal_h dut| state))
))
(define-fun |reset_synchronizer_formal_u| ((state |reset_synchronizer_formal_s|)) Bool 
  (|$paramod$55135e7151185edcc8d80f31efbb9cc8c3ecc2f7/reset_synchronizer_u| (|reset_synchronizer_formal_h dut| state))
)
(define-fun |reset_synchronizer_formal_i| ((state |reset_synchronizer_formal_s|)) Bool (and
  (= (|reset_synchronizer_formal#0| state) #b00000) ; formal_ticks
  (|$paramod$55135e7151185edcc8d80f31efbb9cc8c3ecc2f7/reset_synchronizer_i| (|reset_synchronizer_formal_h dut| state))
))
(define-fun |reset_synchronizer_formal_h| ((state |reset_synchronizer_formal_s|)) Bool (and
  (= (|reset_synchronizer_formal_is| state) (|$paramod$55135e7151185edcc8d80f31efbb9cc8c3ecc2f7/reset_synchronizer_is| (|reset_synchronizer_formal_h dut| state)))
  (= (= ((_ extract 0 0) (|reset_synchronizer_formal#0| state)) #b1) (|$paramod$55135e7151185edcc8d80f31efbb9cc8c3ecc2f7/reset_synchronizer_n clk| (|reset_synchronizer_formal_h dut| state))) ; $paramod$55135e7151185edcc8d80f31efbb9cc8c3ecc2f7/reset_synchronizer.clk
  (= (|reset_synchronizer_formal#1| state) (|$paramod$55135e7151185edcc8d80f31efbb9cc8c3ecc2f7/reset_synchronizer_n release_done| (|reset_synchronizer_formal_h dut| state))) ; $paramod$55135e7151185edcc8d80f31efbb9cc8c3ecc2f7/reset_synchronizer.release_done
  (= (= ((_ extract 0 0) (|reset_synchronizer_formal#5| state)) #b1) (|$paramod$55135e7151185edcc8d80f31efbb9cc8c3ecc2f7/reset_synchronizer_n rst_in| (|reset_synchronizer_formal_h dut| state))) ; $paramod$55135e7151185edcc8d80f31efbb9cc8c3ecc2f7/reset_synchronizer.rst_in
  (= (|reset_synchronizer_formal#2| state) (|$paramod$55135e7151185edcc8d80f31efbb9cc8c3ecc2f7/reset_synchronizer_n rst_out| (|reset_synchronizer_formal_h dut| state))) ; $paramod$55135e7151185edcc8d80f31efbb9cc8c3ecc2f7/reset_synchronizer.rst_out
  (|$paramod$55135e7151185edcc8d80f31efbb9cc8c3ecc2f7/reset_synchronizer_h| (|reset_synchronizer_formal_h dut| state))
))
(define-fun |reset_synchronizer_formal_t| ((state |reset_synchronizer_formal_s|) (next_state |reset_synchronizer_formal_s|)) Bool (and
  (= (|reset_synchronizer_formal#11| state) (|reset_synchronizer_formal#0| next_state)) ; $procdff$28 \formal_ticks
  (|$paramod$55135e7151185edcc8d80f31efbb9cc8c3ecc2f7/reset_synchronizer_t| (|reset_synchronizer_formal_h dut| state) (|reset_synchronizer_formal_h dut| next_state))
)) ; end of module reset_synchronizer_formal
; yosys-smt2-topmod reset_synchronizer_formal
; end of yosys output
